self-compositions/words_1/words_784_SAT.qaiger.qdimacs
p cnf 117 280
a 1 2 3 4 5 6 7 8 0
e 9 10 11 12 13 14 15 16 17 18 19 20 21 22 23 24 25 26 27 28 29 30 31 32 33 34 35 36 37 38 39 40 41 42 43 44 45 46 47 48 49 50 51 52 53 54 55 56 57 58 59 60 61 62 63 64 65 66 67 68 69 70 71 72 73 74 75 76 77 78 79 80 81 82 83 84 85 86 87 88 89 90 91 92 93 94 95 96 97 98 99 100 101 102 103 104 105 106 107 108 109 110 111 112 113 114 115 116 117 0
-18 10 25 0
18 -25 0
-10 -25 0
18 -10 26 0
-18 -26 0
10 -26 0
26 25 27 0
-26 -27 0
-25 -27 0
27 -2 28 0
-27 -28 0
2 -28 0
-27 2 29 0
27 -29 0
-2 -29 0
29 28 30 0
-29 -30 0
-28 -30 0
17 1 31 0
-17 -31 0
-1 -31 0
-17 -1 32 0
17 -32 0
1 -32 0
32 31 33 0
-32 -33 0
-31 -33 0
-33 -9 34 0
33 -34 0
9 -34 0
34 30 35 0
-34 -35 0
-30 -35 0
33 9 36 0
-33 -36 0
-9 -36 0
36 -30 37 0
-36 -37 0
30 -37 0
37 35 38 0
-37 -38 0
-35 -38 0
10 9 39 0
-10 -39 0
-9 -39 0
-39 11 40 0
39 -40 0
-11 -40 0
39 -11 41 0
-39 -41 0
11 -41 0
41 40 42 0
-41 -42 0
-40 -42 0
3 2 43 0
-3 -43 0
-2 -43 0
-3 -2 44 0
3 -44 0
2 -44 0
44 43 45 0
-44 -45 0
-43 -45 0
45 -19 46 0
-45 -46 0
19 -46 0
-45 19 47 0
45 -47 0
-19 -47 0
47 46 48 0
-47 -48 0
-46 -48 0
-48 42 49 0
48 -49 0
-42 -49 0
48 -42 50 0
-48 -50 0
42 -50 0
50 49 51 0
-50 -51 0
-49 -51 0
-51 -38 52 0
51 -52 0
38 -52 0
-40 12 53 0
40 -53 0
-12 -53 0
40 -12 54 0
-40 -54 0
12 -54 0
54 53 55 0
-54 -55 0
-53 -55 0
-43 4 56 0
43 -56 0
-4 -56 0
43 -4 57 0
-43 -57 0
4 -57 0
57 56 58 0
-57 -58 0
-56 -58 0
58 -20 59 0
-58 -59 0
20 -59 0
-58 20 60 0
58 -60 0
-20 -60 0
60 59 61 0
-60 -61 0
-59 -61 0
-61 55 62 0
61 -62 0
-55 -62 0
61 -55 63 0
-61 -63 0
55 -63 0
63 62 64 0
-63 -64 0
-62 -64 0
-64 -52 65 0
64 -65 0
52 -65 0
-53 13 66 0
53 -66 0
-13 -66 0
53 -13 67 0
-53 -67 0
13 -67 0
67 66 68 0
-67 -68 0
-66 -68 0
-56 5 69 0
56 -69 0
-5 -69 0
56 -5 70 0
-56 -70 0
5 -70 0
70 69 71 0
-70 -71 0
-69 -71 0
71 -21 72 0
-71 -72 0
21 -72 0
-71 21 73 0
71 -73 0
-21 -73 0
73 72 74 0
-73 -74 0
-72 -74 0
-74 68 75 0
74 -75 0
-68 -75 0
74 -68 76 0
-74 -76 0
68 -76 0
76 75 77 0
-76 -77 0
-75 -77 0
-77 -65 78 0
77 -78 0
65 -78 0
-66 14 79 0
66 -79 0
-14 -79 0
-79 15 80 0
79 -80 0
-15 -80 0
79 -15 81 0
-79 -81 0
15 -81 0
81 80 82 0
-81 -82 0
-80 -82 0
-69 6 83 0
69 -83 0
-6 -83 0
-83 7 84 0
83 -84 0
-7 -84 0
83 -7 85 0
-83 -85 0
7 -85 0
85 84 86 0
-85 -86 0
-84 -86 0
86 -23 87 0
-86 -87 0
23 -87 0
-86 23 88 0
86 -88 0
-23 -88 0
88 87 89 0
-88 -89 0
-87 -89 0
-89 82 90 0
89 -90 0
-82 -90 0
90 -78 91 0
-90 -91 0
78 -91 0
89 -82 92 0
-89 -92 0
82 -92 0
66 -14 93 0
-66 -93 0
14 -93 0
93 79 94 0
-93 -94 0
-79 -94 0
69 -6 95 0
-69 -95 0
6 -95 0
95 83 96 0
-95 -96 0
-83 -96 0
96 22 97 0
-96 -97 0
-22 -97 0
-96 -22 98 0
96 -98 0
22 -98 0
98 97 99 0
-98 -99 0
-97 -99 0
-99 94 100 0
99 -100 0
-94 -100 0
99 -94 101 0
-99 -101 0
94 -101 0
101 100 102 0
-101 -102 0
-100 -102 0
102 92 103 0
-102 -103 0
-92 -103 0
-24 16 104 0
24 -104 0
-16 -104 0
24 -16 105 0
-24 -105 0
16 -105 0
105 104 106 0
-105 -106 0
-104 -106 0
106 -8 107 0
-106 -107 0
8 -107 0
-106 8 108 0
106 -108 0
-8 -108 0
108 107 109 0
-108 -109 0
-107 -109 0
-109 84 110 0
109 -110 0
-84 -110 0
109 -84 111 0
-109 -111 0
84 -111 0
111 110 112 0
-111 -112 0
-110 -112 0
112 80 113 0
-112 -113 0
-80 -113 0
-112 -80 114 0
112 -114 0
80 -114 0
114 113 115 0
-114 -115 0
-113 -115 0
115 -103 116 0
-115 -116 0
103 -116 0
-116 -91 117 0
116 -117 0
91 -117 0
-117 0
