words_train/words_784_SAT.qaiger
aag 44 16 0 1 28
32
16
8
22
20
12
26
30
6
4
18
10
28
2
14
24
88
34 25 19
36 34 27
38 29 23
40 38 21
42 40 36
44 42 31
46 43 30
48 47 45
50 48 2
52 49 3
54 53 51
56 22 18
58 56 28
60 26 24
62 60 58
64 62 20
66 65 43
68 67 55
70 51 45
72 33 5
74 32 4
76 75 73
78 77 70
80 76 71
82 81 79
84 83 68
86 82 69
88 87 85
i0 1 x[7]
i1 2 y[7]
i2 2 y[3]
i3 1 x[2]
i4 1 x[1]
i5 2 y[5]
i6 1 x[4]
i7 1 x[6]
i8 2 y[2]
i9 2 y[1]
i10 1 x[0]
i11 2 y[4]
i12 1 x[5]
i13 2 y[0]
i14 2 y[6]
i15 1 x[3]
o0 bv[0]
c
simplified
  <
    or
      reverse
        1
      1
    subtract
      << 6
        2 y
      1 x
